50
    45    79    91    13    91    91    92    39     4    14     1    33    75    51    40    91    85    21    74    81     5    61     8    31   100    20    87    39    21    65    98    66    13    79    66    40    10    59    59    53    38    19    85    65    11    87    93    99    36     9
     6     7     7     8    10     3     2    10     3     2    10     5    10     7     6     6     5     7     8     6     6     7     4     7     1     4     7     1     4     2    10    10     6     9     1     5     5     7     6     7     7     3     7     6     6     8     6     4    10     1
  1389  1498   991   293   435  1387   950  1823  1058   301  1232   990   620   643  1333   779   268   592  1306  1310  1045  1357  1415   384   772  1017  1005  1123  1214  1759  1307  1470  1806   569  1155  1829   492  1210  1369   873  1671  1746   465  1617  1246  1789   628   903   885  1073
